NAME : instance_8
COMMENT : Converted from simplified format
TYPE : CVRP
DIMENSION : 11
EDGE_WEIGHT_TYPE : EUC_2D
CAPACITY : 26
NODE_COORD_SECTION
1 0 0
2 77 1
3 28 41
4 32 43
5 65 65
6 34 100
7 87 89
8 74 33
9 21 40
10 94 27
11 5 61
DEMAND_SECTION
1 0
2 4
3 6
4 3
5 1
6 5
7 3
8 3
9 7
10 9
11 10
DEPOT_SECTION
1
EOF
